
  21    0


   0  12 2 3 5 7 8 9 10 16 17 18 19 20 
   2   4 15 13 12 6 
  10   1 4 
   3   2 13 11 
   4   2 12 11 
   6   1 11 
   3   1 14 
   3   1 14 
   4   1 12 
   9   1 11 
   2   1 21
   4   1 21
   5   1 21
   7   1 21
   3   1 21
   2   1 21
   4   1 21
   9   1 21
   9   1 21
   4   1 21
   0   0 
